Optimal - objective value -18.00000000
      0 sv_addi0                     0                      -1
      1 sv_br1                       0                      -1
      2 sv_br2                       0                      -1
      3 sv_br3                       0                      -1
      4 sv_cmpi0                     1                      -1
      5 sv_cond_br1                  1                      -1
      6 sv_cond_br2                  1                      -1
      7 sv_cond_br3                  1                      -1
      8 sv_cond_br4                  1                      -1
      9 sv_constant1                 0                      -1
     10 sv_constant2                 0                      -1
     11 sv_constant5                 0                      -1
     12 sv_extui0                    0                      -1
     13 sv_extui1                    0                      -1
     14 sv_extui2                    0                      -1
     15 sv_extui3                    0                      -1
     16 sv_index_cast0               0                      -1
     17 sv_index_cast1               0                      -1
     18 sv_index_cast2               0                      -1
     19 sv_index_cast3               0                      -1
     20 sv_load0                     0                      -1
     21 sv_load2                     0                      -1
     22 sv_muli0                     1                      -1
     23 sv_muli1                     1                      -1
     24 sv_ori0                      0                      -1
     25 sv_ori1                      0                      -1
     26 sv_phi0                      0                      -1
     27 sv_phi1                      0                      -1
     28 sv_phi2                      0                      -1
     29 sv_return1                   1                      -1
     30 sv_shli0                     0                      -1
     31 sv_shli1                     0                      -1
     32 sv_shli2                     0                      -1
     33 sv_shli3                     0                      -1
     34 sv_start0                    0                      -1
     35 sv_store1                    5                      -1
     36 sv_store3                    5                      -1
